; DUP1 SLOAD DUP2 SWAP1 DUP2 SWAP1 => DUP1 DUP2 DUP3 SLOAD
(set-option :produce-proofs true)
; 
(set-info :status unknown)
(declare-fun storage_t ((_ BitVec 256) (_ BitVec 256) Int (_ BitVec 256)) (_ BitVec 256))
(declare-fun storage_s ((_ BitVec 256) (_ BitVec 256) Int (_ BitVec 256)) (_ BitVec 256))
(declare-fun exc_halt_t (Int) Bool)
(declare-fun exc_halt_s (Int) Bool)
(declare-fun stack_t ((_ BitVec 256) (_ BitVec 256) Int (_ BitVec 6)) (_ BitVec 256))
(declare-fun stack_s ((_ BitVec 256) (_ BitVec 256) Int (_ BitVec 6)) (_ BitVec 256))
(declare-fun sc_t (Int) (_ BitVec 6))
(declare-fun sc_s (Int) (_ BitVec 6))
(declare-fun used_gas_t ((_ BitVec 256) (_ BitVec 256) Int) Int)
(declare-fun used_gas_s ((_ BitVec 256) (_ BitVec 256) Int) Int)
(assert
 (exists ((x_0 (_ BitVec 256)) (x_SLOAD_0 (_ BitVec 256)) )(let (($x5668 (forall ((w (_ BitVec 256)) )(let ((?x4578 (storage_t x_0 x_SLOAD_0 4 w)))
 (let ((?x10326 (storage_s x_0 x_SLOAD_0 6 w)))
 (= ?x10326 ?x4578))))
 ))
 (let (($x7854 (exc_halt_t 4)))
 (let (($x772 (exc_halt_s 6)))
 (let (($x4404 (= $x772 $x7854)))
 (let (($x5819 (forall ((n (_ BitVec 6)) )(let ((?x2623 (stack_t x_0 x_SLOAD_0 4 n)))
 (let ((?x5650 (stack_s x_0 x_SLOAD_0 6 n)))
 (let (($x8574 (= ?x5650 ?x2623)))
 (or (bvsle (sc_t 4) n) $x8574)))))
 ))
 (let ((?x7495 (sc_t 4)))
 (let ((?x926 (sc_s 6)))
 (let (($x7904 (= ?x926 ?x7495)))
 (let ((?x124 (used_gas_t x_0 x_SLOAD_0 0)))
 (let ((?x10688 (used_gas_s x_0 x_SLOAD_0 0)))
 (let (($x5593 (= ?x10688 ?x124)))
 (let (($x479 (forall ((w (_ BitVec 256)) )(let ((?x11518 (storage_t x_0 x_SLOAD_0 0 w)))
 (let ((?x5368 (storage_s x_0 x_SLOAD_0 0 w)))
 (= ?x5368 ?x11518))))
 ))
 (let (($x56 (exc_halt_t 0)))
 (let (($x57 (exc_halt_s 0)))
 (let (($x58 (= $x57 $x56)))
 (let (($x8617 (forall ((n (_ BitVec 6)) )(let ((?x6453 (stack_t x_0 x_SLOAD_0 0 n)))
 (let ((?x300 (stack_s x_0 x_SLOAD_0 0 n)))
 (let (($x8303 (= ?x300 ?x6453)))
 (or (bvsle (sc_t 0) n) $x8303)))))
 ))
 (let ((?x63 (sc_t 0)))
 (let ((?x72 (sc_s 0)))
 (let (($x73 (= ?x72 ?x63)))
 (let (($x8066 (= $x7854 (or (exc_halt_t 3) (not (bvsle (_ bv0 6) (bvadd (_ bv63 6) (sc_t 3))))))))
 (let (($x2887 (forall ((w (_ BitVec 256)) )(let ((?x3290 (storage_t x_0 x_SLOAD_0 3 w)))
 (let ((?x4578 (storage_t x_0 x_SLOAD_0 4 w)))
 (= ?x4578 ?x3290))))
 ))
 (let (($x5358 (forall ((n (_ BitVec 6)) )(or (= (stack_t x_0 x_SLOAD_0 4 n) (stack_t x_0 x_SLOAD_0 3 n)) (bvsle (bvadd (_ bv63 6) (sc_t 3)) n)))
 ))
 (let (($x7932 (= (used_gas_t x_0 x_SLOAD_0 4) (+ 200 (used_gas_t x_0 x_SLOAD_0 3)))))
 (let ((?x11964 (sc_t 3)))
 (let ((?x2643 (bvadd (_ bv63 6) ?x11964)))
 (let ((?x2128 (stack_t x_0 x_SLOAD_0 3 ?x2643)))
 (let (($x6044 (= (stack_t x_0 x_SLOAD_0 4 (bvadd (_ bv63 6) ?x7495)) (storage_t x_0 x_SLOAD_0 3 ?x2128))))
 (let (($x3706 (exc_halt_t 2)))
 (let (($x3872 (or $x3706 (not (bvsle (_ bv0 6) (bvadd (_ bv61 6) (sc_t 2)))) (not (= ((_ extract 6 6) (bvadd (_ bv1 7) (concat (_ bv0 1) (sc_t 2)))) (_ bv0 1))))))
 (let (($x4112 (exc_halt_t 3)))
 (let (($x2921 (forall ((w (_ BitVec 256)) )(let ((?x279 (storage_t x_0 x_SLOAD_0 2 w)))
 (let ((?x3290 (storage_t x_0 x_SLOAD_0 3 w)))
 (= ?x3290 ?x279))))
 ))
 (let (($x8876 (forall ((n (_ BitVec 6)) )(or (bvsle (bvadd (_ bv61 6) (sc_t 2)) n) (= (stack_t x_0 x_SLOAD_0 3 n) (stack_t x_0 x_SLOAD_0 2 n))))
 ))
 (let ((?x9331 (used_gas_t x_0 x_SLOAD_0 3)))
 (let ((?x11248 (sc_t 2)))
 (let ((?x11484 (bvadd (_ bv63 6) ?x11248)))
 (let ((?x1794 (stack_t x_0 x_SLOAD_0 2 ?x11484)))
 (let (($x10596 (= (stack_t x_0 x_SLOAD_0 3 (bvadd (_ bv62 6) ?x11248)) (stack_t x_0 x_SLOAD_0 2 (bvadd (_ bv62 6) ?x11248)))))
 (let ((?x6379 (bvadd (_ bv61 6) ?x11248)))
 (let ((?x1537 (stack_t x_0 x_SLOAD_0 2 ?x6379)))
 (let (($x4852 (exc_halt_t 1)))
 (let (($x11663 (or $x4852 (not (= ((_ extract 6 6) (bvadd (_ bv1 7) (concat (_ bv0 1) (sc_t 1)))) (_ bv0 1))) (not (bvsle (_ bv0 6) (bvadd (_ bv62 6) (sc_t 1)))))))
 (let (($x8604 (forall ((w (_ BitVec 256)) )(let ((?x11264 (storage_t x_0 x_SLOAD_0 1 w)))
 (let ((?x279 (storage_t x_0 x_SLOAD_0 2 w)))
 (= ?x279 ?x11264))))
 ))
 (let (($x9174 (forall ((n (_ BitVec 6)) )(or (bvsle (bvadd (_ bv62 6) (sc_t 1)) n) (= (stack_t x_0 x_SLOAD_0 2 n) (stack_t x_0 x_SLOAD_0 1 n))))
 ))
 (let ((?x1514 (used_gas_t x_0 x_SLOAD_0 2)))
 (let ((?x9666 (sc_t 1)))
 (let ((?x10947 (bvadd (_ bv63 6) ?x9666)))
 (let ((?x1310 (stack_t x_0 x_SLOAD_0 1 ?x10947)))
 (let ((?x6844 (bvadd (_ bv62 6) ?x9666)))
 (let ((?x10191 (stack_t x_0 x_SLOAD_0 1 ?x6844)))
 (let (($x7866 (or $x56 (not (bvsle (_ bv0 6) (bvadd (_ bv63 6) ?x63))) (not (= ((_ extract 6 6) (bvadd (_ bv1 7) (concat (_ bv0 1) ?x63))) (_ bv0 1))))))
 (let (($x3027 (forall ((w (_ BitVec 256)) )(let ((?x11518 (storage_t x_0 x_SLOAD_0 0 w)))
 (let ((?x11264 (storage_t x_0 x_SLOAD_0 1 w)))
 (= ?x11264 ?x11518))))
 ))
 (let (($x10179 (forall ((n (_ BitVec 6)) )(or (= (stack_t x_0 x_SLOAD_0 1 n) (stack_t x_0 x_SLOAD_0 0 n)) (bvsle (bvadd (_ bv63 6) (sc_t 0)) n)))
 ))
 (let ((?x3657 (bvadd (_ bv63 6) ?x63)))
 (let ((?x9036 (stack_t x_0 x_SLOAD_0 0 ?x3657)))
 (let (($x7734 (= $x772 (or (exc_halt_s 5) (not (bvsle (_ bv0 6) (bvadd (_ bv62 6) (sc_s 5))))))))
 (let (($x7976 (forall ((w (_ BitVec 256)) )(let ((?x3115 (storage_s x_0 x_SLOAD_0 5 w)))
 (let ((?x10326 (storage_s x_0 x_SLOAD_0 6 w)))
 (= ?x10326 ?x3115))))
 ))
 (let (($x3335 (forall ((n (_ BitVec 6)) )(or (= (stack_s x_0 x_SLOAD_0 6 n) (stack_s x_0 x_SLOAD_0 5 n)) (bvsle (bvadd (_ bv62 6) (sc_s 5)) n)))
 ))
 (let (($x8005 (= (used_gas_s x_0 x_SLOAD_0 6) (+ 3 (used_gas_s x_0 x_SLOAD_0 5)))))
 (let ((?x8125 (stack_s x_0 x_SLOAD_0 5 (bvadd (_ bv63 6) (sc_s 5)))))
 (let (($x4020 (= (stack_s x_0 x_SLOAD_0 6 (bvadd (_ bv63 6) ?x926)) (stack_s x_0 x_SLOAD_0 5 (bvadd (_ bv62 6) (sc_s 5))))))
 (let (($x9175 (exc_halt_s 4)))
 (let (($x11744 (or (not (= ((_ extract 6 6) (bvadd (_ bv1 7) (concat (_ bv0 1) (sc_s 4)))) (_ bv0 1))) (not (bvsle (_ bv0 6) (bvadd (_ bv62 6) (sc_s 4)))) $x9175)))
 (let (($x1862 (exc_halt_s 5)))
 (let (($x5155 (forall ((w (_ BitVec 256)) )(let ((?x7066 (storage_s x_0 x_SLOAD_0 4 w)))
 (let ((?x3115 (storage_s x_0 x_SLOAD_0 5 w)))
 (= ?x3115 ?x7066))))
 ))
 (let (($x8935 (forall ((n (_ BitVec 6)) )(or (bvsle (bvadd (_ bv62 6) (sc_s 4)) n) (= (stack_s x_0 x_SLOAD_0 5 n) (stack_s x_0 x_SLOAD_0 4 n))))
 ))
 (let ((?x7759 (used_gas_s x_0 x_SLOAD_0 5)))
 (let ((?x9433 (sc_s 4)))
 (let ((?x5670 (bvadd (_ bv63 6) ?x9433)))
 (let ((?x10852 (stack_s x_0 x_SLOAD_0 4 ?x5670)))
 (let ((?x6752 (bvadd (_ bv62 6) ?x9433)))
 (let ((?x5965 (stack_s x_0 x_SLOAD_0 4 ?x6752)))
 (let (($x7542 (= $x9175 (or (exc_halt_s 3) (not (bvsle (_ bv0 6) (bvadd (_ bv62 6) (sc_s 3))))))))
 (let (($x950 (forall ((w (_ BitVec 256)) )(let ((?x6041 (storage_s x_0 x_SLOAD_0 3 w)))
 (let ((?x7066 (storage_s x_0 x_SLOAD_0 4 w)))
 (= ?x7066 ?x6041))))
 ))
 (let (($x2359 (forall ((n (_ BitVec 6)) )(or (bvsle (bvadd (_ bv62 6) (sc_s 3)) n) (= (stack_s x_0 x_SLOAD_0 4 n) (stack_s x_0 x_SLOAD_0 3 n))))
 ))
 (let ((?x7916 (used_gas_s x_0 x_SLOAD_0 4)))
 (let (($x10052 (exc_halt_s 2)))
 (let (($x5445 (or (not (= ((_ extract 6 6) (bvadd (_ bv1 7) (concat (_ bv0 1) (sc_s 2)))) (_ bv0 1))) (not (bvsle (_ bv0 6) (bvadd (_ bv62 6) (sc_s 2)))) $x10052)))
 (let (($x8103 (exc_halt_s 3)))
 (let (($x5750 (forall ((w (_ BitVec 256)) )(let ((?x5039 (storage_s x_0 x_SLOAD_0 2 w)))
 (let ((?x6041 (storage_s x_0 x_SLOAD_0 3 w)))
 (= ?x6041 ?x5039))))
 ))
 (let (($x4988 (forall ((n (_ BitVec 6)) )(or (= (stack_s x_0 x_SLOAD_0 3 n) (stack_s x_0 x_SLOAD_0 2 n)) (bvsle (bvadd (_ bv62 6) (sc_s 2)) n)))
 ))
 (let ((?x6343 (used_gas_s x_0 x_SLOAD_0 3)))
 (let ((?x2272 (sc_s 2)))
 (let ((?x7721 (bvadd (_ bv63 6) ?x2272)))
 (let ((?x2066 (stack_s x_0 x_SLOAD_0 2 ?x7721)))
 (let ((?x9641 (bvadd (_ bv62 6) ?x2272)))
 (let ((?x5674 (stack_s x_0 x_SLOAD_0 2 ?x9641)))
 (let (($x11121 (= $x10052 (or (exc_halt_s 1) (not (bvsle (_ bv0 6) (bvadd (_ bv63 6) (sc_s 1))))))))
 (let (($x2237 (forall ((w (_ BitVec 256)) )(let ((?x9146 (storage_s x_0 x_SLOAD_0 1 w)))
 (let ((?x5039 (storage_s x_0 x_SLOAD_0 2 w)))
 (= ?x5039 ?x9146))))
 ))
 (let (($x11265 (forall ((n (_ BitVec 6)) )(or (bvsle (bvadd (_ bv63 6) (sc_s 1)) n) (= (stack_s x_0 x_SLOAD_0 2 n) (stack_s x_0 x_SLOAD_0 1 n))))
 ))
 (let ((?x7251 (used_gas_s x_0 x_SLOAD_0 2)))
 (let ((?x154 (sc_s 1)))
 (let ((?x7012 (bvadd (_ bv63 6) ?x154)))
 (let ((?x9209 (stack_s x_0 x_SLOAD_0 1 ?x7012)))
 (let (($x748 (or $x57 (not (bvsle (_ bv0 6) (bvadd (_ bv63 6) ?x72))) (not (= ((_ extract 6 6) (bvadd (_ bv1 7) (concat (_ bv0 1) ?x72))) (_ bv0 1))))))
 (let (($x8780 (exc_halt_s 1)))
 (let (($x4598 (forall ((w (_ BitVec 256)) )(let ((?x5368 (storage_s x_0 x_SLOAD_0 0 w)))
 (let ((?x9146 (storage_s x_0 x_SLOAD_0 1 w)))
 (= ?x9146 ?x5368))))
 ))
 (let (($x3773 (forall ((n (_ BitVec 6)) )(or (bvsle (bvadd (_ bv63 6) (sc_s 0)) n) (= (stack_s x_0 x_SLOAD_0 1 n) (stack_s x_0 x_SLOAD_0 0 n))))
 ))
 (let ((?x2654 (bvadd (_ bv63 6) ?x72)))
 (let ((?x3510 (stack_s x_0 x_SLOAD_0 0 ?x2654)))
 (let (($x9857 (forall ((w (_ BitVec 256)) )(let ((?x7716 (ite (= w (stack_s x_0 x_SLOAD_0 1 (bvadd (_ bv63 6) (sc_s 1)))) x_SLOAD_0 (_ bv0 256))))
 (let ((?x5368 (storage_s x_0 x_SLOAD_0 0 w)))
 (= ?x5368 ?x7716))))
 ))
 (let (($x9525 (= ?x10688 0)))
 (let (($x9557 (= (stack_s x_0 x_SLOAD_0 0 (_ bv0 6)) x_0)))
 (let (($x4631 (= ?x72 (_ bv1 6))))
 (and $x4631 $x9557 (not $x57) $x9525 $x9857 (= ?x9209 ?x3510) (= (stack_s x_0 x_SLOAD_0 1 ?x2654) ?x3510) (= (used_gas_s x_0 x_SLOAD_0 1) (+ 3 ?x10688)) (= ?x154 (bvadd (_ bv1 6) ?x72)) $x3773 $x4598 (= $x8780 $x748) (= ?x2066 (storage_s x_0 x_SLOAD_0 1 ?x9209)) (= ?x7251 (+ 200 (used_gas_s x_0 x_SLOAD_0 1))) (= ?x2272 ?x154) $x11265 $x2237 $x11121 (= (stack_s x_0 x_SLOAD_0 3 (bvadd (_ bv63 6) (sc_s 3))) ?x5674) (= (stack_s x_0 x_SLOAD_0 3 ?x9641) ?x5674) (= (stack_s x_0 x_SLOAD_0 3 ?x7721) ?x2066) (= ?x6343 (+ 3 ?x7251)) (= (sc_s 3) (bvadd (_ bv1 6) ?x2272)) $x4988 $x5750 (= $x8103 $x5445) (= ?x10852 (stack_s x_0 x_SLOAD_0 3 (bvadd (_ bv62 6) (sc_s 3)))) (= ?x5965 (stack_s x_0 x_SLOAD_0 3 (bvadd (_ bv63 6) (sc_s 3)))) (= ?x7916 (+ 3 ?x6343)) (= ?x9433 (sc_s 3)) $x2359 $x950 $x7542 (= ?x8125 ?x5965) (= (stack_s x_0 x_SLOAD_0 5 ?x6752) ?x5965) (= (stack_s x_0 x_SLOAD_0 5 ?x5670) ?x10852) (= ?x7759 (+ 3 ?x7916)) (= (sc_s 5) (bvadd (_ bv1 6) ?x9433)) $x8935 $x5155 (= $x1862 $x11744) $x4020 (= (stack_s x_0 x_SLOAD_0 6 (bvadd (_ bv62 6) ?x926)) ?x8125) $x8005 (= ?x926 (sc_s 5)) $x3335 $x7976 $x7734 (= ?x1310 ?x9036) (= (stack_t x_0 x_SLOAD_0 1 ?x3657) ?x9036) (= (used_gas_t x_0 x_SLOAD_0 1) (+ 3 ?x124)) (= ?x9666 (bvadd (_ bv1 6) ?x63)) $x10179 $x3027 (= $x4852 $x7866) (= ?x1794 ?x10191) (= (stack_t x_0 x_SLOAD_0 2 ?x6844) ?x10191) (= (stack_t x_0 x_SLOAD_0 2 ?x10947) ?x1310) (= ?x1514 (+ 3 (used_gas_t x_0 x_SLOAD_0 1))) (= ?x11248 (bvadd (_ bv1 6) ?x9666)) $x9174 $x8604 (= $x3706 $x11663) (= ?x2128 ?x1537) (= (stack_t x_0 x_SLOAD_0 3 ?x6379) ?x1537) $x10596 (= (stack_t x_0 x_SLOAD_0 3 ?x11484) ?x1794) (= ?x9331 (+ 3 ?x1514)) (= ?x11964 (bvadd (_ bv1 6) ?x11248)) $x8876 $x2921 (= $x4112 $x3872) $x6044 $x7932 (= ?x7495 ?x11964) $x5358 $x2887 $x8066 $x73 $x8617 $x58 $x479 $x5593 (not (and $x7904 $x5819 $x4404 $x5668)))))))))))))))))))))))))))))))))))))))))))))))))))))))))))))))))))))))))))))))))))))))))))))))))))))))))))
 )
(check-sat)
(get-proof)
